1901254
81,66,21,83,77,50,93,11,16,39,58,64,51,18,42,23,27,89,53,70,97,33,45,4,84,43,71,62,92,61,59,29,31,67,30,73,6,72,13,10,22,38,91,32,8,46,56,69,75,35,41,48,55,9,74,95,76,40,5,17,68,19,20,12,98,2,1,34,96,88,7,52,90,63,26,14,15,82,79,36,47,0,54,37,49,87,60,94,24,78,28,25,3,65,80,85,86,44,57
